(set-option :print-success false)
(set-logic QF_UF)
(declare-sort x84 0)
(declare-sort x47 0)
(declare-fun x104 (x47 x47) x47)
(declare-fun x122 () x47)
(declare-fun x48 () x47)
(declare-fun x128 (x47 x47) x47)
(declare-fun x79 () x47)
(declare-fun x97 () x47)
(declare-fun x143 () x47)
(assert (and (and (and (and (or (or (= (x104 (x104 x79 x97) x97) x79) (or (= (x104 (x104 x143 x97) x97) x143) (or (= x97 (x104 (x104 x97 x97) x97)) (= (x104 (x104 x122 x97) x97) x122)))) (= x48 (x104 (x104 x48 x97) x97))) (or (or (or (= x143 (x104 (x104 x143 x122) x122)) (or (= (x104 (x104 x122 x122) x122) x122) (= x97 (x104 (x104 x97 x122) x122)))) (= (x104 (x104 x79 x122) x122) x79)) (= (x104 (x104 x48 x122) x122) x48))) (or (or (= x79 (x104 (x104 x79 x143) x143)) (or (= (x104 (x104 x143 x143) x143) x143) (or (= x122 (x104 (x104 x122 x143) x143)) (= x97 (x104 (x104 x97 x143) x143))))) (= (x104 (x104 x48 x143) x143) x48))) (or (= (x104 (x104 x48 x79) x79) x48) (or (or (= (x104 (x104 x143 x79) x79) x143) (or (= (x104 (x104 x122 x79) x79) x122) (= x97 (x104 (x104 x97 x79) x79)))) (= x79 (x104 (x104 x79 x79) x79))))) (or (or (or (= (x104 (x104 x143 x48) x48) x143) (or (= x122 (x104 (x104 x122 x48) x48)) (= x97 (x104 (x104 x97 x48) x48)))) (= x79 (x104 (x104 x79 x48) x48))) (= (x104 (x104 x48 x48) x48) x48))))
(assert (not (and (and (and (= (x104 x48 x143) x143) (and (and (= x79 (x104 x48 x97)) (and (and (= (x104 x79 x79) x97) (and (= (x104 x79 x143) x48) (and (and (and (and (= x143 (x104 x143 x79)) (and (= (x104 x143 x143) x97) (and (and (and (and (= x79 (x104 x122 x79)) (and (= x122 (x104 x122 x143)) (and (= x97 (x104 x122 x122)) (and (= (x104 x122 x97) x143) (and (and (and (= x79 (x104 x97 x143)) (and (= x97 (x104 x97 x97)) (= x122 (x104 x97 x122)))) (= (x104 x97 x79) x48)) (= (x104 x97 x48) x143)))))) (= (x104 x122 x48) x48)) (= (x104 x143 x97) x48)) (= x79 (x104 x143 x122))))) (= x122 (x104 x143 x48))) (= x122 (x104 x79 x97))) (= x143 (x104 x79 x122))))) (= x79 (x104 x79 x48)))) (= (x104 x48 x122) x48))) (= x122 (x104 x48 x79))) (= (x104 x48 x48) x97))))
(assert (or (= (x104 x48 x48) x48) (or (= (x104 x79 x79) x79) (or (= (x104 x143 x143) x143) (or (= x122 (x104 x122 x122)) (= (x104 x97 x97) x97))))))
(assert (let ((x51 (x104 x122 x48)) (x108 (x104 x48 x122)) (x55 (x104 x48 x79)) (x59 (x104 x48 x48)) (x150 (x104 x97 x79)) (x45 (x104 x97 x48)) (x76 (x104 x143 x143)) (x131 (x104 x143 x97)) (x100 (x104 x97 x122)) (x68 (x104 x122 x143)) (x50 (x104 x97 x97)) (x118 (x104 x122 x79)) (x151 (x104 x97 x143)) (x73 (x104 x79 x97)) (x95 (x104 x79 x79)) (x25 (x104 x79 x48)) (x126 (x104 x79 x143)) (x60 (x104 x48 x143)) (x10 (x104 x143 x48)) (x54 (x104 x122 x97)) (x43 (x104 x48 x97)) (x20 (x104 x79 x122)) (x156 (x104 x122 x122)) (x12 (x104 x143 x79)) (x65 (x104 x143 x122))) (let ((x41 (= x79 x156)) (x99 (= x48 x12)) (x27 (= x79 x76)) (x138 (= x48 x100)) (x89 (= x100 x97)) (x149 (= x43 x48)) (x148 (= x51 x143)) (x15 (= x97 x68)) (x23 (= x131 x143)) (x137 (= x20 x97)) (x142 (= x51 x79)) (x80 (= x122 x59)) (x91 (= x97 x25)) (x107 (= x10 x143)) (x132 (= x73 x122)) (x152 (= x79 x68)) (x153 (= x79 x12)) (x158 (= x79 x60)) (x40 (= x48 x95)) (x125 (= x143 x25)) (x4 (= x122 x95)) (x81 (= x122 x76)) (x159 (= x48 x118)) (x61 (= x79 x10)) (x46 (= x68 x122)) (x28 (= x12 x122)) (x135 (= x122 x55)) (x136 (= x122 x51)) (x52 (= x118 x143)) (x101 (= x156 x122)) (x92 (= x150 x97)) (x69 (= x10 x97)) (x141 (= x143 x156)) (x157 (= x118 x79)) (x130 (= x20 x79)) (x103 (= x45 x79)) (x42 (= x65 x48)) (x145 (= x97 x126)) (x29 (= x151 x97)) (x102 (= x122 x60)) (x13 (= x12 x97)) (x93 (= x25 x122)) (x11 (= x97 x50)) (x3 (= x108 x122)) (x7 (= x25 x48)) (x66 (= x45 x122)) (x70 (= x97 x59)) (x18 (= x97 x131)) (x24 (= x79 x65)) (x36 (= x108 x48)) (x49 (= x68 x48)) (x146 (= x122 x10)) (x8 (= x143 x151)) (x98 (= x76 x48)) (x90 (= x143 x126)) (x111 (= x95 x143)) (x88 (= x79 x95)) (x110 (= x54 x97)) (x120 (= x79 x150)) (x87 (= x12 x143)) (x37 (= x156 x97)) (x19 (= x60 x97)) (x82 (= x68 x143)) (x116 (= x43 x122)) (x34 (= x65 x97)) (x115 (= x100 x143)) (x64 (= x97 x95)) (x147 (= x20 x143)) (x114 (= x50 x143)) (x139 (= x51 x48)) (x57 (= x151 x48)) (x63 (= x79 x59)) (x109 (= x79 x50)) (x30 (= x150 x143)) (x44 (= x97 x43)) (x121 (= x73 x79)) (x75 (= x143 x108)) (x35 (= x55 x97)) (x67 (= x122 x100)) (x2 (= x97 x118)) (x105 (= x20 x122)) (x17 (= x79 x126)) (x53 (= x143 x54)) (x83 (= x143 x73)) (x39 (= x108 x79)) (x140 (= x126 x48)) (x112 (= x48 x50)) (x134 (= x97 x108)) (x154 (= x48 x73)) (x129 (= x55 x143)) (x56 (= x48 x10)) (x86 (= x79 x43)) (x74 (= x122 x65)) (x22 (= x143 x45)) (x38 (= x131 x122)) (x72 (= x76 x97)) (x117 (= x45 x48)) (x96 (= x151 x122)) (x119 (= x131 x79)) (x144 (= x122 x50)) (x124 (= x51 x97)) (x77 (= x151 x79)) (x123 (= x48 x54)) (x21 (= x97 x45)) (x155 (= x76 x143)) (x78 (= x48 x20)) (x1 (= x122 x126)) (x26 (= x150 x122)) (x31 (= x55 x79)) (x14 (= x48 x59)) (x58 (= x48 x55)) (x127 (= x59 x143)) (x71 (= x79 x54)) (x16 (= x143 x43)) (x6 (= x143 x60)) (x94 (= x79 x25)) (x85 (= x122 x54)) (x113 (= x65 x143)) (x106 (= x156 x48)) (x62 (= x48 x60)) (x5 (= x131 x48)) (x32 (= x97 x73)) (x9 (= x150 x48)) (x33 (= x118 x122)) (x133 (= x100 x79))) (and (and (and (and (and (and (and (or (or (or x119 (or x71 x109)) x121) x86) (or (or (or x77 (or x133 x109)) x120) x103)) (and (and (or (or x30 (or (or x115 x114) x8)) x22) (or (or x83 (or (or x114 x53) x23)) x16)) (and (and (or x66 (or x26 (or (or x144 x67) x96))) (or (or (or (or x144 x85) x38) x132) x116)) (and (or (or x32 (or x18 (or x110 x11))) x44) (or (or x92 (or (or x89 x11) x29)) x21))))) (and (or (or (or x57 (or x112 x138)) x9) x117) (or (or x154 (or (or x123 x112) x5)) x149))) (and (and (or (or x159 (or x49 (or x106 x123))) x139) (or (or (or (or x138 x106) x42) x78) x36)) (and (and (and (or (or x147 (or (or x141 x115) x113)) x75) (or (or (or (or x141 x53) x82) x52) x148)) (and (and (or (or (or x34 (or x89 x37)) x137) x134) (or (or (or x15 (or x110 x37)) x2) x124)) (and (or x136 (or x33 (or x46 (or x101 x85)))) (or x3 (or (or x74 (or x101 x67)) x105))))) (and (or x142 (or x157 (or (or x71 x41) x152))) (or x39 (or (or (or x41 x133) x24) x130)))))) (and (and (or (or (or x98 (or x49 x57)) x140) x62) (or (or x99 (or (or x42 x5) x98)) x56)) (and (and (and (and (or (or x1 (or (or x96 x46) x81)) x102) (or (or (or x81 (or x38 x74)) x28) x146)) (and (or x19 (or (or (or x29 x15) x72) x145)) (or (or (or (or x34 x18) x72) x13) x69))) (and (or x107 (or (or (or x113 x23) x155) x87)) (or (or x90 (or (or x8 x82) x155)) x6))) (and (or (or (or (or x77 x152) x27) x17) x158) (or (or (or x27 (or x119 x24)) x153) x61))))) (and (and (or (or (or x140 (or x78 x154)) x40) x7) (or x58 (or x40 (or (or x9 x159) x99)))) (and (and (and (or x125 (or x111 (or x90 (or x147 x83)))) (or (or (or x87 (or x30 x52)) x111) x129)) (and (and (or x93 (or x4 (or (or x132 x105) x1))) (or (or x4 (or x28 (or x33 x26))) x135)) (and (or x91 (or x64 (or x145 (or x32 x137)))) (or x35 (or (or x13 (or x92 x2)) x64))))) (and (or (or (or x17 (or x130 x121)) x88) x94) (or x31 (or x88 (or x153 (or x120 x157)))))))) (and (and (or x14 (or (or (or x139 x117) x56) x7)) (or x14 (or x58 (or (or x149 x36) x62)))) (and (and (or (or (or (or x86 x39) x158) x31) x63) (or x63 (or x94 (or (or x103 x142) x61)))) (and (and (or x127 (or (or (or x148 x22) x107) x125)) (or (or (or (or x75 x16) x6) x129) x127)) (and (and (or x70 (or (or (or x21 x124) x69) x91)) (or x70 (or (or x19 (or x134 x44)) x35))) (and (or (or (or (or x136 x66) x146) x93) x80) (or (or x135 (or x102 (or x116 x3))) x80))))))))))
(assert (or (or (or (and (not (= x143 (x104 x48 (x104 x143 x48)))) (and (and (not (= x143 (x104 x143 (x104 x143 x143)))) (and (not (= x143 (x104 x97 (x104 x143 x97)))) (not (= x143 (x104 x122 (x104 x143 x122)))))) (not (= (x104 x79 (x104 x143 x79)) x143)))) (or (and (and (not (= x97 (x104 x79 (x104 x97 x79)))) (and (not (= x97 (x104 x143 (x104 x97 x143)))) (and (not (= x97 (x104 x122 (x104 x97 x122)))) (not (= x97 (x104 x97 (x104 x97 x97))))))) (not (= (x104 x48 (x104 x97 x48)) x97))) (and (not (= (x104 x48 (x104 x122 x48)) x122)) (and (not (= x122 (x104 x79 (x104 x122 x79)))) (and (not (= (x104 x143 (x104 x122 x143)) x122)) (and (not (= x122 (x104 x97 (x104 x122 x97)))) (not (= (x104 x122 (x104 x122 x122)) x122)))))))) (and (not (= (x104 x48 (x104 x79 x48)) x79)) (and (and (not (= x79 (x104 x143 (x104 x79 x143)))) (and (not (= x79 (x104 x122 (x104 x79 x122)))) (not (= x79 (x104 x97 (x104 x79 x97)))))) (not (= x79 (x104 x79 (x104 x79 x79))))))) (and (and (not (= (x104 x79 (x104 x48 x79)) x48)) (and (not (= (x104 x143 (x104 x48 x143)) x48)) (and (not (= x48 (x104 x122 (x104 x48 x122)))) (not (= x48 (x104 x97 (x104 x48 x97))))))) (not (= x48 (x104 x48 (x104 x48 x48)))))))
(assert (let ((x54 (x104 x97 x143)) (x15 (x104 x79 x48)) (x65 (x104 x122 x143)) (x18 (x104 x79 x122)) (x74 (x104 x48 x143)) (x34 (x104 x79 x143)) (x138 (x104 x143 x48)) (x118 (x104 x122 x97)) (x67 (x104 x122 x122)) (x123 (x104 x143 x79)) (x108 (x104 x122 x79)) (x106 (x104 x79 x97)) (x41 (x104 x143 x143)) (x12 (x104 x48 x48)) (x131 (x104 x97 x79)) (x72 (x104 x48 x97)) (x71 (x104 x143 x97)) (x76 (x104 x48 x79)) (x144 (x104 x97 x122)) (x133 (x104 x143 x122)) (x73 (x104 x97 x48)) (x38 (x104 x48 x122)) (x29 (x104 x79 x79)) (x115 (x104 x122 x48)) (x45 (x104 x97 x97))) (let ((x7 (= x76 x48)) (x59 (= x67 x48)) (x114 (= x97 x118)) (x157 (= x79 x41)) (x86 (= x143 x76)) (x6 (= x48 x71)) (x94 (= x34 x48)) (x35 (= x144 x48)) (x63 (= x74 x79)) (x139 (= x38 x48)) (x83 (= x18 x122)) (x90 (= x122 x34)) (x32 (= x133 x143)) (x95 (= x79 x131)) (x141 (= x122 x115)) (x43 (= x122 x45)) (x155 (= x143 x118)) (x60 (= x41 x97)) (x16 (= x115 x48)) (x9 (= x106 x79)) (x103 (= x79 x72)) (x112 (= x67 x97)) (x137 (= x41 x143)) (x132 (= x97 x18)) (x5 (= x108 x143)) (x37 (= x122 x131)) (x121 (= x79 x71)) (x111 (= x15 x122)) (x57 (= x143 x115)) (x27 (= x41 x122)) (x8 (= x73 x143)) (x19 (= x72 x97)) (x46 (= x144 x143)) (x148 (= x143 x38)) (x51 (= x122 x118)) (x116 (= x48 x73)) (x42 (= x123 x122)) (x150 (= x73 x97)) (x11 (= x45 x97)) (x105 (= x79 x54)) (x22 (= x133 x48)) (x146 (= x122 x74)) (x13 (= x106 x97)) (x70 (= x76 x97)) (x140 (= x143 x15)) (x142 (= x18 x48)) (x14 (= x48 x12)) (x136 (= x48 x65)) (x25 (= x29 x97)) (x4 (= x122 x106)) (x135 (= x72 x122)) (x92 (= x143 x138)) (x1 (= x34 x97)) (x126 (= x143 x54)) (x156 (= x73 x122)) (x109 (= x122 x144)) (x153 (= x143 x34)) (x145 (= x143 x123)) (x64 (= x144 x79)) (x134 (= x48 x45)) (x120 (= x143 x18)) (x33 (= x15 x97)) (x62 (= x15 x48)) (x99 (= x34 x79)) (x49 (= x138 x122)) (x55 (= x67 x79)) (x127 (= x48 x123)) (x3 (= x12 x97)) (x152 (= x65 x143)) (x21 (= x97 x38)) (x78 (= x79 x138)) (x44 (= x79 x15)) (x53 (= x122 x108)) (x81 (= x133 x97)) (x101 (= x122 x67)) (x75 (= x122 x12)) (x93 (= x108 x48)) (x85 (= x108 x97)) (x125 (= x74 x143)) (x151 (= x131 x97)) (x68 (= x115 x97)) (x2 (= x79 x45)) (x91 (= x131 x48)) (x110 (= x122 x54)) (x52 (= x29 x122)) (x80 (= x76 x122)) (x102 (= x118 x48)) (x20 (= x65 x122)) (x154 (= x29 x143)) (x149 (= x48 x29)) (x24 (= x67 x143)) (x119 (= x71 x122)) (x28 (= x118 x79)) (x158 (= x12 x143)) (x61 (= x38 x79)) (x100 (= x97 x54)) (x96 (= x71 x97)) (x130 (= x143 x106)) (x117 (= x72 x48)) (x31 (= x48 x106)) (x129 (= x143 x72)) (x88 (= x123 x79)) (x159 (= x18 x79)) (x147 (= x65 x79)) (x98 (= x143 x71)) (x69 (= x74 x97)) (x10 (= x143 x45)) (x87 (= x115 x79)) (x50 (= x97 x144)) (x36 (= x79 x76)) (x30 (= x79 x108)) (x56 (= x48 x74)) (x40 (= x29 x79)) (x39 (= x48 x138)) (x23 (= x131 x143)) (x26 (= x79 x73)) (x17 (= x133 x79)) (x124 (= x48 x54)) (x89 (= x97 x65)) (x113 (= x97 x123)) (x82 (= x97 x138)) (x77 (= x122 x133)) (x107 (= x48 x41)) (x66 (= x122 x38)) (x58 (= x12 x79))) (and (and (and (or (or (or (or (or (and (not x6) x129) (and (not x22) x148)) (and (not x107) x125)) (and (not x127) x86)) (and (not x39) x158)) (or (or (or (and x154 (not x88)) (or (and x153 (not x157)) (or (and (not x17) x120) (and (not x121) x130)))) (and (not x78) x140)) (or (or (or (or (and (not x113) x23) (or (and x126 (not x60)) (or (and x46 (not x81)) (and (not x96) x10)))) (and x8 (not x82))) (or (and x57 (not x49)) (or (and (not x42) x5) (or (and (not x27) x152) (or (and x155 (not x119)) (and (not x77) x24)))))) (or (or (and x145 (not x145)) (or (or (and x32 (not x32)) (and (not x98) x98)) (and x137 (not x137)))) (and x92 (not x92)))))) (and (or (or (or (or (and (not x30) x52) (or (and x90 (not x147)) (or (and (not x55) x83) (and x4 (not x28))))) (and (not x87) x111)) (or (or (or (or (and (not x85) x37) (or (and x110 (not x89)) (or (and (not x112) x109) (and x43 (not x114))))) (and (not x68) x156)) (or (and (not x141) x141) (or (and (not x53) x53) (or (or (and (not x51) x51) (and x101 (not x101))) (and x20 (not x20)))))) (or (and (not x57) x49) (or (and x42 (not x5)) (or (or (and (not x24) x77) (and x119 (not x155))) (and (not x152) x27)))))) (or (or (or (and x146 (not x136)) (or (and x135 (not x102)) (and x66 (not x59)))) (and (not x93) x80)) (and (not x16) x75))) (or (or (or (or (and (not x124) x69) (or (and (not x134) x19) (and (not x35) x21))) (and x70 (not x91))) (and x3 (not x116))) (or (or (or (or (and (not x23) x113) (or (and x60 (not x126)) (or (and (not x10) x96) (and (not x46) x81)))) (and x82 (not x8))) (or (or (or (or (and x89 (not x110)) (or (and (not x109) x112) (and x114 (not x43)))) (and (not x37) x85)) (and x68 (not x156))) (or (or (and (not x151) x151) (or (or (and (not x11) x11) (and (not x50) x50)) (and (not x100) x100))) (and x150 (not x150))))) (or (or (or (or (and (not x2) x13) (and x132 (not x64))) (and x1 (not x105))) (and x25 (not x95))) (and x33 (not x26))))))) (or (or (and (not x62) x58) (or (or (or (and (not x31) x103) (and x61 (not x142))) (and x63 (not x94))) (and (not x149) x36))) (or (or (or (or (and x88 (not x154)) (or (and x157 (not x153)) (or (and x17 (not x120)) (and (not x130) x121)))) (and (not x140) x78)) (or (or (or (and (not x52) x30) (or (or (and (not x83) x55) (and (not x4) x28)) (and x147 (not x90)))) (and x87 (not x111))) (or (or (or (or (and x2 (not x13)) (and x64 (not x132))) (and (not x1) x105)) (and (not x25) x95)) (and x26 (not x33))))) (or (or (and (not x40) x40) (or (or (and (not x9) x9) (and (not x159) x159)) (and (not x99) x99))) (and x44 (not x44)))))) (or (or (or (or (and x39 (not x158)) (or (or (or (and x22 (not x148)) (and (not x129) x6)) (and (not x125) x107)) (and (not x86) x127))) (or (or (and (not x3) x116) (or (and x91 (not x70)) (or (and x124 (not x69)) (or (and (not x21) x35) (and x134 (not x19)))))) (or (or (and x93 (not x80)) (or (or (and (not x135) x102) (and x59 (not x66))) (and x136 (not x146)))) (and (not x75) x16)))) (or (or (or (and x94 (not x63)) (or (and (not x103) x31) (and x142 (not x61)))) (and (not x36) x149)) (and (not x58) x62))) (or (and x14 (not x14)) (or (or (and x56 (not x56)) (or (and x117 (not x117)) (and x139 (not x139)))) (and x7 (not x7)))))))))
(assert (let ((x112 (x104 x79 x143)) (x109 (x104 x143 x143)) (x110 (x104 x48 x143)) (x67 (x104 x143 x48)) (x68 (x104 x48 x79)) (x85 (x104 x143 x79)) (x45 (x104 x97 x122)) (x114 (x104 x122 x143)) (x11 (x104 x97 x97)) (x50 (x104 x122 x97)) (x118 (x104 x97 x48)) (x100 (x104 x143 x97)) (x54 (x104 x143 x122)) (x156 (x104 x79 x79)) (x101 (x104 x79 x48)) (x89 (x104 x97 x79)) (x37 (x104 x122 x79)) (x51 (x104 x122 x48)) (x43 (x104 x97 x143)) (x150 (x104 x48 x97)) (x144 (x104 x122 x122)) (x73 (x104 x48 x122)) (x151 (x104 x79 x97)) (x65 (x104 x48 x48)) (x131 (x104 x79 x122))) (and (and (and (and (and (not (= x68 x110)) (and (not (= x65 x73)) (and (and (not (= x110 x73)) (and (and (not (= x150 x68)) (and (not (= x73 x150)) (not (= x110 x150)))) (not (= x65 x150)))) (not (= x73 x68))))) (not (= x65 x110))) (not (= x65 x68))) (and (and (not (= x156 x101)) (and (not (= x112 x101)) (and (and (not (= x131 x101)) (and (not (= x156 x131)) (and (and (and (and (not (= x131 x151)) (not (= x151 x112))) (not (= x151 x156))) (not (= x151 x101))) (not (= x112 x131))))) (not (= x112 x156))))) (and (and (and (not (= x67 x109)) (and (and (and (not (= x54 x85)) (and (and (not (= x100 x67)) (and (not (= x100 x85)) (and (not (= x100 x109)) (not (= x100 x54))))) (not (= x109 x54)))) (not (= x67 x54))) (not (= x109 x85)))) (not (= x85 x67))) (and (and (and (not (= x43 x118)) (and (not (= x43 x89)) (and (not (= x45 x118)) (and (and (not (= x45 x43)) (and (and (and (not (= x11 x45)) (not (= x43 x11))) (not (= x11 x89))) (not (= x118 x11)))) (not (= x89 x45)))))) (not (= x89 x118))) (and (and (and (and (and (and (and (and (and (not (= x50 x114)) (not (= x144 x50))) (not (= x50 x37))) (not (= x50 x51))) (not (= x114 x144))) (not (= x37 x144))) (not (= x51 x144))) (not (= x114 x37))) (not (= x51 x114))) (not (= x51 x37))))))) (and (and (and (and (not (= x85 x68)) (and (not (= x85 x156)) (and (not (= x37 x68)) (and (and (not (= x85 x37)) (and (and (not (= x156 x89)) (and (not (= x89 x37)) (not (= x89 x85)))) (not (= x68 x89)))) (not (= x37 x156)))))) (not (= x156 x68))) (and (and (and (and (and (and (not (= x50 x150)) (and (not (= x50 x151)) (and (not (= x100 x50)) (and (and (not (= x11 x151)) (and (not (= x100 x11)) (not (= x11 x50)))) (not (= x11 x150)))))) (not (= x100 x151))) (not (= x100 x150))) (not (= x150 x151))) (and (not (= x131 x73)) (and (not (= x54 x73)) (and (and (and (and (not (= x144 x54)) (and (not (= x45 x73)) (and (and (not (= x144 x45)) (not (= x45 x54))) (not (= x131 x45))))) (not (= x144 x131))) (not (= x144 x73))) (not (= x54 x131)))))) (and (and (and (and (and (not (= x114 x112)) (and (not (= x109 x114)) (and (and (not (= x43 x112)) (and (not (= x43 x109)) (not (= x43 x114)))) (not (= x43 x110))))) (not (= x114 x110))) (not (= x112 x109))) (not (= x109 x110))) (not (= x112 x110))))) (and (not (= x101 x65)) (and (and (not (= x67 x101)) (and (not (= x51 x65)) (and (not (= x101 x51)) (and (and (and (and (not (= x51 x118)) (not (= x118 x67))) (not (= x118 x101))) (not (= x65 x118))) (not (= x67 x51)))))) (not (= x67 x65))))))))
(assert (not (and (and (= (x104 x48 x79) x122) (and (= (x104 x48 x143) x79) (and (= (x104 x48 x122) x48) (and (= (x104 x48 x97) x143) (and (= (x104 x79 x48) x79) (and (and (and (= (x104 x79 x122) x143) (and (= (x104 x79 x97) x122) (and (= (x104 x143 x48) x48) (and (= (x104 x143 x79) x143) (and (= x97 (x104 x143 x143)) (and (and (= x79 (x104 x143 x97)) (and (and (and (and (and (= x48 (x104 x122 x97)) (and (and (= x48 (x104 x97 x79)) (and (and (= x79 (x104 x97 x122)) (= (x104 x97 x97) x97)) (= (x104 x97 x143) x143))) (= x122 (x104 x97 x48)))) (= x97 (x104 x122 x122))) (= x122 (x104 x122 x143))) (= x79 (x104 x122 x79))) (= (x104 x122 x48) x143))) (= x122 (x104 x143 x122)))))))) (= (x104 x79 x143) x48)) (= (x104 x79 x79) x97))))))) (= x97 (x104 x48 x48)))))
(assert (let ((x114 (x104 x143 x122)) (x85 (x104 x79 x143)) (x54 (x104 x122 x143)) (x37 (x104 x79 x122)) (x68 (x104 x79 x48)) (x150 (x104 x97 x48)) (x73 (x104 x122 x48)) (x109 (x104 x143 x143)) (x118 (x104 x48 x97)) (x43 (x104 x143 x97)) (x151 (x104 x97 x79)) (x112 (x104 x143 x79)) (x156 (x104 x79 x79)) (x51 (x104 x48 x122)) (x89 (x104 x79 x97)) (x101 (x104 x48 x79)) (x110 (x104 x143 x48)) (x11 (x104 x97 x97)) (x45 (x104 x122 x97)) (x131 (x104 x122 x79)) (x67 (x104 x48 x143)) (x100 (x104 x97 x143)) (x144 (x104 x122 x122)) (x50 (x104 x97 x122)) (x65 (x104 x48 x48))) (and (and (and (and (and (and (and (and (or (or (or (= x11 x143) (or (= x11 x122) (= x11 x97))) (= x79 x11)) (= x11 x48)) (or (= x50 x48) (or (= x79 x50) (or (= x50 x143) (or (= x50 x97) (= x122 x50)))))) (or (or (or (= x100 x143) (or (= x100 x122) (= x97 x100))) (= x79 x100)) (= x48 x100))) (or (or (or (= x143 x151) (or (= x151 x97) (= x151 x122))) (= x151 x79)) (= x151 x48))) (or (= x150 x48) (or (or (= x143 x150) (or (= x122 x150) (= x97 x150))) (= x150 x79)))) (and (or (= x73 x48) (or (= x79 x73) (or (or (= x73 x122) (= x73 x97)) (= x143 x73)))) (and (and (or (or (= x79 x54) (or (= x143 x54) (or (= x54 x122) (= x97 x54)))) (= x48 x54)) (and (or (= x48 x144) (or (= x79 x144) (or (= x143 x144) (or (= x144 x97) (= x144 x122))))) (or (= x45 x48) (or (= x45 x79) (or (= x45 x143) (or (= x45 x97) (= x122 x45))))))) (or (or (= x79 x131) (or (= x143 x131) (or (= x122 x131) (= x97 x131)))) (= x131 x48))))) (and (or (or (or (= x143 x110) (or (= x97 x110) (= x110 x122))) (= x110 x79)) (= x48 x110)) (and (or (= x112 x48) (or (= x79 x112) (or (= x112 x143) (or (= x122 x112) (= x97 x112))))) (and (or (or (= x79 x109) (or (or (= x109 x122) (= x97 x109)) (= x109 x143))) (= x109 x48)) (and (or (or (or (or (= x114 x122) (= x114 x97)) (= x143 x114)) (= x114 x79)) (= x48 x114)) (or (= x48 x43) (or (or (= x43 x143) (or (= x122 x43) (= x43 x97))) (= x79 x43)))))))) (and (and (and (and (or (or (= x79 x37) (or (= x143 x37) (or (= x37 x97) (= x122 x37)))) (= x37 x48)) (or (or (= x79 x89) (or (= x89 x143) (or (= x89 x97) (= x89 x122)))) (= x48 x89))) (or (= x85 x48) (or (= x85 x79) (or (or (= x85 x122) (= x97 x85)) (= x143 x85))))) (or (= x156 x48) (or (or (or (= x156 x122) (= x156 x97)) (= x143 x156)) (= x156 x79)))) (or (= x68 x48) (or (or (= x143 x68) (or (= x68 x97) (= x122 x68))) (= x79 x68))))) (and (and (and (or (or (or (= x143 x67) (or (= x122 x67) (= x97 x67))) (= x79 x67)) (= x48 x67)) (and (or (or (= x79 x118) (or (= x118 x143) (or (= x118 x97) (= x118 x122)))) (= x48 x118)) (or (or (= x79 x51) (or (or (= x51 x97) (= x122 x51)) (= x143 x51))) (= x48 x51)))) (or (= x101 x48) (or (= x79 x101) (or (= x101 x143) (or (= x122 x101) (= x97 x101)))))) (or (= x65 x48) (or (or (or (= x122 x65) (= x65 x97)) (= x65 x143)) (= x79 x65)))))))
(assert (and (or (not (= (x104 x48 (x104 x48 x48)) x48)) (or (or (or (not (= x122 (x104 x48 (x104 x48 x122)))) (not (= (x104 x48 (x104 x48 x97)) x97))) (not (= (x104 x48 (x104 x48 x143)) x143))) (not (= x79 (x104 x48 (x104 x48 x79)))))) (and (or (not (= x48 (x104 x79 (x104 x79 x48)))) (or (or (not (= x143 (x104 x79 (x104 x79 x143)))) (or (not (= (x104 x79 (x104 x79 x97)) x97)) (not (= x122 (x104 x79 (x104 x79 x122)))))) (not (= (x104 x79 (x104 x79 x79)) x79)))) (and (or (or (or (or (not (= (x104 x143 (x104 x143 x97)) x97)) (not (= x122 (x104 x143 (x104 x143 x122))))) (not (= x143 (x104 x143 (x104 x143 x143))))) (not (= (x104 x143 (x104 x143 x79)) x79))) (not (= (x104 x143 (x104 x143 x48)) x48))) (and (or (or (or (not (= (x104 x122 (x104 x122 x143)) x143)) (or (not (= x97 (x104 x122 (x104 x122 x97)))) (not (= x122 (x104 x122 (x104 x122 x122)))))) (not (= x79 (x104 x122 (x104 x122 x79))))) (not (= x48 (x104 x122 (x104 x122 x48))))) (or (not (= (x104 x97 (x104 x97 x48)) x48)) (or (or (not (= x143 (x104 x97 (x104 x97 x143)))) (or (not (= (x104 x97 (x104 x97 x122)) x122)) (not (= (x104 x97 (x104 x97 x97)) x97)))) (not (= (x104 x97 (x104 x97 x79)) x79)))))))))
(assert (let ((x151 (x104 x79 x79)) (x100 (x104 x143 x143)) (x150 (x104 x48 x48)) (x50 (x104 x122 x122)) (x11 (x104 x97 x97))) (and (and (= x151 (x104 x151 x151)) (and (= x100 (x104 x100 x100)) (and (= x50 (x104 x50 x50)) (= x11 (x104 x11 x11))))) (= (x104 x150 x150) x150))))
(assert (or (and (and (not (= (x104 (x104 x79 x48) x79) x48)) (and (and (not (= (x104 (x104 x97 x48) x97) x48)) (not (= x48 (x104 (x104 x122 x48) x122)))) (not (= x48 (x104 (x104 x143 x48) x143))))) (not (= (x104 (x104 x48 x48) x48) x48))) (or (or (and (and (not (= x143 (x104 (x104 x79 x143) x79))) (and (not (= (x104 (x104 x143 x143) x143) x143)) (and (not (= x143 (x104 (x104 x122 x143) x122))) (not (= (x104 (x104 x97 x143) x97) x143))))) (not (= x143 (x104 (x104 x48 x143) x48)))) (or (and (and (and (and (not (= x122 (x104 (x104 x97 x122) x97))) (not (= x122 (x104 (x104 x122 x122) x122)))) (not (= x122 (x104 (x104 x143 x122) x143)))) (not (= (x104 (x104 x79 x122) x79) x122))) (not (= (x104 (x104 x48 x122) x48) x122))) (and (and (and (not (= (x104 (x104 x143 x97) x143) x97)) (and (not (= x97 (x104 (x104 x97 x97) x97))) (not (= x97 (x104 (x104 x122 x97) x122))))) (not (= (x104 (x104 x79 x97) x79) x97))) (not (= (x104 (x104 x48 x97) x48) x97))))) (and (not (= x79 (x104 (x104 x48 x79) x48))) (and (not (= x79 (x104 (x104 x79 x79) x79))) (and (not (= (x104 (x104 x143 x79) x143) x79)) (and (not (= (x104 (x104 x97 x79) x97) x79)) (not (= x79 (x104 (x104 x122 x79) x122))))))))))
(assert (and (and (= (x104 x79 x122) x143) (and (= x122 (x104 x48 x79)) (= (x104 x79 x79) x97))) (= (x104 x97 x79) x48)))
(assert (and (or (or (= (x104 x79 x48) x79) (or (= x143 (x104 x143 x48)) (or (= (x104 x97 x48) x97) (= (x104 x122 x48) x122)))) (= x48 (x104 x48 x48))) (and (or (= x48 (x104 x48 x79)) (or (= x79 (x104 x79 x79)) (or (= x143 (x104 x143 x79)) (or (= x122 (x104 x122 x79)) (= x97 (x104 x97 x79)))))) (and (or (= (x104 x48 x143) x48) (or (= x79 (x104 x79 x143)) (or (= (x104 x143 x143) x143) (or (= (x104 x122 x143) x122) (= (x104 x97 x143) x97))))) (and (or (or (= x79 (x104 x79 x97)) (or (= x143 (x104 x143 x97)) (or (= x97 (x104 x97 x97)) (= (x104 x122 x97) x122)))) (= x48 (x104 x48 x97))) (or (or (= x79 (x104 x79 x122)) (or (= x143 (x104 x143 x122)) (or (= (x104 x122 x122) x122) (= (x104 x97 x122) x97)))) (= (x104 x48 x122) x48)))))))
(assert (let ((x150 (x104 x48 x48)) (x50 (x104 x122 x122)) (x11 (x104 x97 x97)) (x151 (x104 x79 x79)) (x100 (x104 x143 x143))) (let ((x73 (not (= (x104 x143 x100) x143))) (x144 (= x11 x97)) (x43 (= x143 x100)) (x54 (not (= (x104 x122 x50) x122))) (x109 (= x79 x151)) (x45 (not (= (x104 x97 x11) x97))) (x112 (not (= (x104 x48 x150) x48))) (x131 (= x50 x122)) (x110 (= x48 x150)) (x114 (not (= x79 (x104 x79 x151))))) (and (and (and (and (and (or x45 (or (or (or (or x144 (= (x104 x122 x97) x122)) (= (x104 x143 x97) x143)) (= x79 (x104 x79 x97))) (= x48 (x104 x48 x97)))) (or (or (= x48 (x104 x48 x122)) (or (or (= (x104 x143 x122) x143) (or x131 (= (x104 x97 x122) x97))) (= (x104 x79 x122) x79))) x54)) (or x73 (or (= x48 (x104 x48 x143)) (or (= (x104 x79 x143) x79) (or x43 (or (= x97 (x104 x97 x143)) (= (x104 x122 x143) x122))))))) (or (or (or (or (= (x104 x143 x79) x143) (or (= x122 (x104 x122 x79)) (= (x104 x97 x79) x97))) x109) (= x48 (x104 x48 x79))) x114)) (or (or x110 (or (= x79 (x104 x79 x48)) (or (or (= x97 (x104 x97 x48)) (= x122 (x104 x122 x48))) (= (x104 x143 x48) x143)))) x112)) (and (or x112 (or x110 (or (= x151 x48) (or (= x100 x48) (or (= x48 x50) (= x48 x11)))))) (and (and (or (or (= x143 x150) (or (= x151 x143) (or x43 (or (= x50 x143) (= x143 x11))))) x73) (and (or (or (= x97 x150) (or (or (or (= x50 x97) x144) (= x100 x97)) (= x97 x151))) x45) (or (or (= x122 x150) (or (or (or (= x11 x122) x131) (= x122 x100)) (= x151 x122))) x54))) (or x114 (or (or x109 (or (= x100 x79) (or (= x79 x11) (= x50 x79)))) (= x150 x79)))))))))
(assert (and (and (not (= x143 x48)) (and (and (not (= x122 x48)) (and (and (and (and (not (= x97 x79)) (and (not (= x122 x97)) (not (= x97 x143)))) (not (= x97 x48))) (not (= x122 x143))) (not (= x79 x122)))) (not (= x143 x79)))) (not (= x48 x79))))
(assert (let ((x151 (x104 x79 x79)) (x150 (x104 x48 x48)) (x100 (x104 x143 x143)) (x50 (x104 x122 x122)) (x11 (x104 x97 x97))) (or (and (not (= x48 x150)) (and (not (= x151 x48)) (and (and (not (= x11 x48)) (not (= x48 x50))) (not (= x48 x100))))) (or (or (and (not (= x143 x150)) (and (and (and (not (= x143 x11)) (not (= x50 x143))) (not (= x143 x100))) (not (= x143 x151)))) (or (and (not (= x150 x122)) (and (and (not (= x100 x122)) (and (not (= x50 x122)) (not (= x122 x11)))) (not (= x151 x122)))) (and (and (and (not (= x97 x100)) (and (not (= x97 x11)) (not (= x50 x97)))) (not (= x151 x97))) (not (= x97 x150))))) (and (not (= x79 x150)) (and (not (= x151 x79)) (and (not (= x79 x100)) (and (not (= x11 x79)) (not (= x79 x50))))))))))
(assert (let ((x34 (x104 x122 x122)) (x74 (x104 x79 x122)) (x113 (x104 x79 x143)) (x53 (x104 x97 x122)) (x20 (x104 x97 x97)) (x49 (x104 x48 x79)) (x71 (x104 x143 x97)) (x38 (x104 x122 x79)) (x23 (x104 x143 x79)) (x138 (x104 x48 x97)) (x8 (x104 x143 x48)) (x76 (x104 x122 x48)) (x82 (x104 x48 x143)) (x126 (x104 x143 x143)) (x132 (x104 x48 x48)) (x57 (x104 x79 x48)) (x141 (x104 x97 x143)) (x15 (x104 x122 x143)) (x5 (x104 x79 x79)) (x72 (x104 x143 x122)) (x133 (x104 x97 x79)) (x115 (x104 x122 x97)) (x12 (x104 x48 x122)) (x123 (x104 x97 x48)) (x41 (x104 x79 x97))) (let ((x150 (not (= x97 x71))) (x109 (not (= x97 x38))) (x149 (not (= x138 x48))) (x81 (not (= x122 x15))) (x106 (not (= x115 x122))) (x153 (not (= x143 x82))) (x50 (not (= x115 x97))) (x67 (not (= x97 x49))) (x112 (not (= x113 x97))) (x69 (not (= x133 x79))) (x29 (not (= x34 x122))) (x140 (not (= x143 x132))) (x146 (not (= x82 x79))) (x32 (not (= x122 x123))) (x118 (not (= x82 x97))) (x27 (not (= x23 x122))) (x155 (not (= x122 x41))) (x51 (not (= x8 x97))) (x55 (not (= x15 x143))) (x108 (not (= x122 x20))) (x17 (not (= x143 x123))) (x87 (not (= x143 x113))) (x134 (not (= x141 x79))) (x40 (not (= x34 x79))) (x56 (not (= x49 x48))) (x114 (not (= x74 x97))) (x42 (not (= x122 x5))) (x33 (not (= x71 x143))) (x83 (not (= x126 x143))) (x116 (not (= x113 x79))) (x6 (not (= x20 x48))) (x54 (not (= x15 x97))) (x11 (not (= x20 x97))) (x37 (not (= x97 x138))) (x30 (not (= x74 x143))) (x157 (not (= x143 x76))) (x88 (not (= x143 x8))) (x152 (not (= x122 x113))) (x1 (not (= x20 x143))) (x148 (not (= x34 x48))) (x95 (not (= x115 x143))) (x9 (not (= x20 x79))) (x43 (not (= x97 x133))) (x90 (not (= x133 x143))) (x66 (not (= x79 x12))) (x158 (not (= x41 x48))) (x131 (not (= x126 x97))) (x136 (not (= x79 x76))) (x137 (not (= x12 x122))) (x105 (not (= x132 x122))) (x25 (not (= x143 x53))) (x16 (not (= x57 x79))) (x36 (not (= x123 x48))) (x35 (not (= x15 x79))) (x65 (not (= x97 x132))) (x78 (not (= x57 x143))) (x125 (not (= x141 x48))) (x121 (not (= x143 x5))) (x24 (not (= x74 x122))) (x4 (not (= x143 x72))) (x98 (not (= x122 x138))) (x77 (not (= x122 x38))) (x19 (not (= x79 x72))) (x129 (not (= x48 x115))) (x130 (not (= x143 x138))) (x46 (not (= x72 x122))) (x156 (not (= x97 x12))) (x31 (not (= x133 x48))) (x89 (not (= x97 x5))) (x26 (not (= x143 x34))) (x58 (not (= x48 x76))) (x21 (not (= x79 x126))) (x86 (not (= x48 x15))) (x127 (not (= x72 x48))) (x103 (not (= x74 x48))) (x14 (not (= x48 x132))) (x22 (not (= x48 x53))) (x75 (not (= x79 x132))) (x45 (not (= x141 x97))) (x80 (not (= x79 x49))) (x124 (not (= x41 x79))) (x3 (not (= x79 x23))) (x62 (not (= x12 x48))) (x154 (not (= x49 x143))) (x107 (not (= x48 x71))) (x135 (not (= x138 x79))) (x2 (not (= x122 x8))) (x70 (not (= x38 x79))) (x139 (not (= x8 x48))) (x60 (not (= x122 x126))) (x99 (not (= x79 x53))) (x145 (not (= x122 x76))) (x85 (not (= x97 x123))) (x28 (not (= x141 x143))) (x120 (not (= x143 x12))) (x96 (not (= x141 x122))) (x119 (not (= x133 x122))) (x102 (not (= x5 x79))) (x117 (not (= x48 x82))) (x110 (not (= x23 x97))) (x13 (not (= x49 x122))) (x111 (not (= x143 x23))) (x10 (not (= x71 x122))) (x147 (not (= x143 x41))) (x61 (not (= x113 x48))) (x59 (not (= x123 x79))) (x73 (not (= x97 x41))) (x101 (not (= x97 x57))) (x91 (not (= x79 x74))) (x39 (not (= x48 x126))) (x92 (not (= x122 x82))) (x142 (not (= x38 x48))) (x68 (not (= x97 x76))) (x18 (not (= x122 x53))) (x52 (not (= x38 x143))) (x100 (not (= x97 x53))) (x93 (not (= x8 x79))) (x64 (not (= x122 x57))) (x144 (not (= x97 x72))) (x151 (not (= x97 x34))) (x63 (not (= x48 x5))) (x7 (not (= x57 x48))) (x44 (not (= x79 x71))) (x94 (not (= x23 x48))) (x159 (not (= x79 x115)))) (or (and (and (and (or x56 x7) (and (or x117 x139) (and (or x149 x36) (or x58 x62)))) (or x14 x14)) (and (and (and (and (or x94 x61) (and (and (or x107 x125) (or x127 x86)) (or x39 x39))) (or x117 x139)) (and (and (or x149 x36) (and (and (and (or x6 x6) (or x22 x129)) (or x107 x125)) (or x158 x31))) (and (or x58 x62) (and (or x142 x103) (and (and (or x129 x22) (or x148 x148)) (or x86 x127)))))) (and (or x56 x7) (and (or x63 x63) (and (and (or x142 x103) (or x31 x158)) (or x61 x94)))))) (or (or (or (and (and (and (or x101 x67) (and (and (or x112 x110) (and (or x114 x109) (or x43 x73))) (or x89 x89))) (and (and (and (or x85 x37) (and (and (and (or x11 x11) (or x50 x100)) (or x150 x45)) (or x73 x43))) (and (and (and (or x144 x54) (and (or x151 x151) (or x100 x50))) (or x109 x114)) (or x156 x68))) (and (and (or x112 x110) (and (and (or x144 x54) (or x150 x45)) (or x131 x131))) (or x51 x118)))) (and (or x65 x65) (and (and (or x51 x118) (and (or x37 x85) (or x156 x68))) (or x101 x67)))) (and (and (and (and (and (and (or x155 x119) (and (and (or x108 x108) (or x106 x18)) (or x96 x10))) (or x32 x98)) (and (and (and (and (or x29 x29) (or x18 x106)) (or x46 x81)) (or x77 x24)) (or x137 x145))) (and (or x92 x2) (and (and (or x60 x60) (and (or x10 x96) (or x46 x81))) (or x152 x27)))) (and (or x64 x13) (and (and (or x152 x27) (and (or x77 x24) (or x155 x119))) (or x42 x42)))) (and (or x105 x105) (and (and (or x92 x2) (and (or x137 x145) (or x98 x32))) (or x64 x13))))) (and (and (and (or x154 x78) (and (or x88 x153) (and (or x17 x130) (or x120 x157)))) (or x140 x140)) (and (and (and (or x88 x153) (and (and (and (or x55 x4) (or x33 x28)) (or x83 x83)) (or x111 x87))) (and (and (or x130 x17) (and (and (or x28 x33) (and (or x95 x25) (or x1 x1))) (or x90 x147))) (and (or x157 x120) (and (or x52 x30) (and (and (or x26 x26) (or x95 x25)) (or x55 x4)))))) (and (or x154 x78) (and (and (and (or x90 x147) (or x52 x30)) (or x87 x111)) (or x121 x121)))))) (and (and (and (or x80 x16) (and (or x102 x102) (and (or x3 x116) (and (or x70 x91) (or x69 x124))))) (and (and (and (and (or x91 x70) (and (and (or x159 x99) (or x40 x40)) (or x35 x19))) (or x136 x66)) (and (and (or x124 x69) (and (and (or x99 x159) (or x9 x9)) (or x44 x134))) (or x135 x59))) (and (or x146 x93) (and (or x116 x3) (and (or x21 x21) (and (or x134 x44) (or x19 x35))))))) (and (and (and (or x93 x146) (and (or x136 x66) (or x59 x135))) (or x16 x80)) (or x75 x75))))))))
(assert (or (and (not (= x48 (x104 x48 (x104 x48 x48)))) (and (not (= (x104 x48 (x104 x48 x79)) x79)) (and (and (not (= (x104 x48 (x104 x48 x122)) x122)) (not (= (x104 x48 (x104 x48 x97)) x97))) (not (= x143 (x104 x48 (x104 x48 x143))))))) (or (and (and (and (and (not (= x122 (x104 x79 (x104 x79 x122)))) (not (= x97 (x104 x79 (x104 x79 x97))))) (not (= (x104 x79 (x104 x79 x143)) x143))) (not (= (x104 x79 (x104 x79 x79)) x79))) (not (= x48 (x104 x79 (x104 x79 x48))))) (or (and (not (= (x104 x143 (x104 x143 x48)) x48)) (and (and (not (= x143 (x104 x143 (x104 x143 x143)))) (and (not (= (x104 x143 (x104 x143 x97)) x97)) (not (= (x104 x143 (x104 x143 x122)) x122)))) (not (= (x104 x143 (x104 x143 x79)) x79)))) (or (and (and (and (and (not (= x122 (x104 x122 (x104 x122 x122)))) (not (= (x104 x122 (x104 x122 x97)) x97))) (not (= x143 (x104 x122 (x104 x122 x143))))) (not (= (x104 x122 (x104 x122 x79)) x79))) (not (= x48 (x104 x122 (x104 x122 x48))))) (and (not (= x48 (x104 x97 (x104 x97 x48)))) (and (and (and (not (= (x104 x97 (x104 x97 x97)) x97)) (not (= x122 (x104 x97 (x104 x97 x122))))) (not (= x143 (x104 x97 (x104 x97 x143))))) (not (= x79 (x104 x97 (x104 x97 x79)))))))))))
(check-sat)
(exit)
